p cnf 15 22
15 14 1 0
-15 -13 -5 0
-15 10 -7 0
15 9 -3 0
-15 5 -2 0
-14 -12 -2 0
14 -8 2 0
-13 12 -1 0
-13 10 -2 0
-13 -7 1 0
13 -5 -4 0
13 4 1 0
-12 11 -8 0
-12 10 -5 0
-12 -9 -3 0
-11 -10 2 0
11 6 -3 0
-10 9 -7 0
-10 4 -3 0
7 6 2 0
-7 4 -3 0
7 -4 3 0
